/*********************************************
 * OPL 12.6.0.0 Data
 * Author: Adrian Rodriguez Bazaga, Pau Rodriguez Esmerats
 * Creation Date: 09/12/2017 at 00:43:01
 *********************************************/

maxConsec=13;
maxPresence=13;
maxHours=8;
minHours=5;
hours=16;
demand= [15 25 25 26 24 25 24 26 22 18 11 3 1 1 0 1  ];
nNurses=34;
